10 10 3

0 500 474 412 447 399 275 200 400 135 
320 0 489 242 125 213 124 463 400 65 
442 245 0 309 113 325 312 377 276 246 
68 402 202 0 114 402 382 232 348 487 
213 498 386 298 0 73 130 247 148 293 
321 110 399 92 258 0 144 352 321 419 
370 405 401 115 423 303 0 267 244 411 
148 182 258 134 346 462 226 0 350 241 
307 96 339 306 123 155 412 166 0 120 
55 224 147 180 93 51 288 158 425 0 

286.77 0 8
286.77 1 2
286.77 2 6
286.77 3 1
286.77 4 0
286.77 5 3
286.77 6 0
286.77 7 8
286.77 8 7
286.77 9 8

